units          real
boundary       p p p
atom_style     full
bond_style     harmonic
angle_style    harmonic
dihedral_style opls
pair_style     lj/cut/coul/long 10.0
kspace_style   pppm 1.0e-5
timestep       1.0
pair_modify    mix arithmetic 
thermo         1
read_data      ethane.lammps

# Edit neighbor list options
neighbor       1.0 bin
neigh_modify   every 1 delay 0 check yes

# Run EM
minimize       0.0 1e-6 0 0 
